c File: instances/10_0.35_2.col
c
c Description: Random graph of size 10 vertices and P(0.35) of edges between any two vertices.
p col 10 45
e 1 5
e 1 6
e 1 9
e 1 10
e 2 5
e 2 9
e 3 6
e 3 7
e 3 8
e 3 9
e 3 10
e 4 5
e 4 6
e 5 8
e 5 10
e 6 7
e 7 9